(declare-const ab1 Bool)
(declare-const cd1 Bool)
(declare-const ef1 Bool)
(declare-const ag1 Bool)
(declare-const bg1 Bool)
(declare-const cg1 Bool)
(declare-const dg1 Bool)
(declare-const eg1 Bool)
(declare-const fg1 Bool)
(declare-const ab2 Bool)
(declare-const cd2 Bool)
(declare-const ef2 Bool)
(declare-const ag2 Bool)
(declare-const bg2 Bool)
(declare-const cg2 Bool)
(declare-const dg2 Bool)
(declare-const eg2 Bool)
(declare-const fg2 Bool)
(push)
(assert
  (and
    (or ab1 ab2)
    (or cd1 cd2)
    (or ef1 ef2)
    (or ag1 ag2)
    (or bg1 bg2)
    (or cg1 cg2)
    (or dg1 dg2)
    (or eg1 eg2)
    (or fg1 fg2)
    (or (not ab1) (not ab2))
    (or (not cd1) (not cd2))
    (or (not ef1) (not ef2))
    (or (not ag1) (not ag2))
    (or (not bg1) (not bg2))
    (or (not cg1) (not cg2))
    (or (not dg1) (not dg2))
    (or (not eg1) (not eg2))
    (or (not fg1) (not fg2))
    (or (not ab1) (not ag1) (not bg1))
    (or (not ab2) (not ag2) (not bg2))
    (or (not cd1) (not cg1) (not dg1))
    (or (not cd2) (not cg2) (not dg2))
    (or (not ef1) (not eg1) (not fg1))
    (or (not ef2) (not eg2) (not fg2))))
(check-sat)
(get-model)
(pop)